(declare-fun temp2866_2 () (_ BitVec 64))
(declare-fun temp2866_1 () (_ BitVec 64))
(declare-fun temp2866_3 () (_ BitVec 64))
(declare-fun var1969928 () (_ BitVec 64))
(declare-fun temp2866_5 () (_ BitVec 64))
(declare-fun temp2866_4 () (_ BitVec 64))
(declare-fun temp2866_6 () (_ BitVec 64))
(declare-fun var4463028 () (_ BitVec 64))
(declare-fun temp2866_7 () (_ BitVec 64))
(declare-fun var5506870 () (_ BitVec 64))
(declare-fun var5705948 () (_ BitVec 64))
(declare-fun temp2866_8 () (_ BitVec 64))
(declare-fun var6490091 () (_ BitVec 64))
(declare-fun ARGNAME_input_NAMEEND_DIM () (_ BitVec 64))
(declare-fun temp2866_10 () (_ BitVec 64))
(declare-fun temp2866_9 () (_ BitVec 64))
(declare-fun var6556535 () (_ BitVec 64))
(declare-fun temp2866_11 () (_ BitVec 64))
(declare-fun var6622984 () (_ BitVec 64))
(declare-fun var6688529 () (_ BitVec 64))
(declare-fun temp2866_13 () (_ BitVec 64))
(declare-fun temp2866_12 () (_ BitVec 64))
(declare-fun temp2866_14 () (_ BitVec 64))
(declare-fun var6885111 () (_ BitVec 64))
(declare-fun temp2866_15 () (_ BitVec 64))
(declare-fun var6490152 () (_ BitVec 64))
(declare-fun temp2866_16 () (_ BitVec 64))
(declare-fun var6490194 () (_ BitVec 64))
(declare-fun temp2866_18 () (_ BitVec 64))
(declare-fun temp2866_17 () (_ BitVec 64))
(declare-fun temp2866_19 () (_ BitVec 64))
(declare-fun var7474168 () (_ BitVec 64))
(declare-fun temp2866_20 () (_ BitVec 64))
(declare-fun var7474218 () (_ BitVec 64))
(declare-fun temp2866_21 () (_ BitVec 64))
(declare-fun var6490139 () (_ BitVec 64))
(declare-fun var6490138 () (_ BitVec 64))
(declare-fun temp2866_22 () (_ BitVec 64))
(declare-fun var6490143 () (_ BitVec 64))
(declare-fun temp2866_23 () (_ BitVec 64))
(declare-fun var6490145 () (_ BitVec 64))
(declare-fun temp2866_24 () (_ BitVec 64))
(declare-fun temp2866_25 () (_ BitVec 64))
(declare-fun var8653978 () (_ BitVec 64))
(declare-fun temp2866_26 () (_ BitVec 64))
(declare-fun var9046222 () (_ BitVec 64))
(declare-fun temp2866_27 () (_ BitVec 64))
(declare-fun var9046299 () (_ BitVec 64))
(declare-fun var9046220 () (_ BitVec 64))
(declare-fun var205360 () (_ BitVec 64))
(declare-fun var205361 () (_ BitVec 64))
(assert (= temp2866_2 #x0000000000000000))
(assert (= temp2866_1 temp2866_2))
(assert (= temp2866_3 #x0000000000000005))
(assert (= var1969928 temp2866_3))
(assert (= temp2866_5 #x0000000000000000))
(assert (= temp2866_4 temp2866_5))
(assert (= temp2866_6 #x0000000000000000))
(assert (= var4463028 temp2866_6))
(assert (= temp2866_7 #x0000000000000000))
(assert (= var5506870 temp2866_7))
(assert (= var5705948 var5506870))
(assert (= temp2866_8 #x0000000000000001))
(assert (= var6490091 (bvshl ARGNAME_input_NAMEEND_DIM temp2866_8)))
(assert (= temp2866_10 #x0000000000000000))
(assert (= temp2866_9 temp2866_10))
(assert (= var6556535 var6490091))
(assert (= temp2866_11 #x0000000000000005))
(assert (= var6622984 temp2866_11))
(assert (= var6688529 var6556535))
(assert (= temp2866_13 #x0000000000000000))
(assert (= temp2866_12 temp2866_13))
(assert (= temp2866_14 #x0000000000000000))
(assert (= var6885111 temp2866_14))
(assert (= temp2866_15 #x0000000000000000))
(assert (= var6490152 temp2866_15))
(assert (= temp2866_16 #x0000000000000001))
(assert (= var6490194 temp2866_16))
(assert (= temp2866_18 #x0000000000000000))
(assert (= temp2866_17 temp2866_18))
(assert (= temp2866_19 #x0000000000000001))
(assert (= var7474168 temp2866_19))
(assert (= temp2866_20 #x0000000000000000))
(assert (= var7474218 temp2866_20))
(assert (= temp2866_21 #x0000000000000000))
(assert (= var7474218 temp2866_21))
(assert (= var6490139 var6490194))
(assert (= var6490138 var6490139))
(assert (= temp2866_22 #x0000000000000001))
(assert (= var6490143 (bvand var6490138 temp2866_22)))
(assert (= temp2866_23 #x0000000000000000))
(assert (= var6490145
   (ite (= var6490143 temp2866_23) #x0000000000000001 #x0000000000000000)))
(assert (= temp2866_24 #x0000000000000000))
(assert (= var6490145 temp2866_24))
(assert (= temp2866_25 #x0000000000000000))
(assert (= var8653978 temp2866_25))
(assert (= temp2866_26 #x0000000000000000))
(assert (= var9046222 temp2866_26))
(assert (= temp2866_27 #x0000000000000001))
(assert (= var9046299 temp2866_27))
(assert (= var9046220 var9046299))
(assert (= var205360 var9046220))
(assert (= var205361 var205360))
(model-add temp2866_2 () (_ BitVec 64) #x0000000000000000)
(model-add temp2866_1 () (_ BitVec 64) #x0000000000000000)
(model-add temp2866_3 () (_ BitVec 64) #x0000000000000005)
(model-add var1969928 () (_ BitVec 64) #x0000000000000005)
(model-add temp2866_5 () (_ BitVec 64) #x0000000000000000)
(model-add temp2866_4 () (_ BitVec 64) #x0000000000000000)
(model-add temp2866_6 () (_ BitVec 64) #x0000000000000000)
(model-add var4463028 () (_ BitVec 64) #x0000000000000000)
(model-add temp2866_7 () (_ BitVec 64) #x0000000000000000)
(model-add var5506870 () (_ BitVec 64) #x0000000000000000)
(model-add var5705948 () (_ BitVec 64) #x0000000000000000)
(model-add temp2866_8 () (_ BitVec 64) #x0000000000000001)
(model-add var6490091
           ()
           (_ BitVec 64)
           (concat ((_ extract 62 0) ARGNAME_input_NAMEEND_DIM) #b0))
(model-add temp2866_10 () (_ BitVec 64) #x0000000000000000)
(model-add temp2866_9 () (_ BitVec 64) #x0000000000000000)
(model-add var6556535
           ()
           (_ BitVec 64)
           (concat ((_ extract 62 0) ARGNAME_input_NAMEEND_DIM) #b0))
(model-add temp2866_11 () (_ BitVec 64) #x0000000000000005)
(model-add var6622984 () (_ BitVec 64) #x0000000000000005)
(model-add var6688529
           ()
           (_ BitVec 64)
           (concat ((_ extract 62 0) ARGNAME_input_NAMEEND_DIM) #b0))
(model-add temp2866_13 () (_ BitVec 64) #x0000000000000000)
(model-add temp2866_12 () (_ BitVec 64) #x0000000000000000)
(model-add temp2866_14 () (_ BitVec 64) #x0000000000000000)
(model-add var6885111 () (_ BitVec 64) #x0000000000000000)
(model-add temp2866_15 () (_ BitVec 64) #x0000000000000000)
(model-add var6490152 () (_ BitVec 64) #x0000000000000000)
(model-add temp2866_16 () (_ BitVec 64) #x0000000000000001)
(model-add var6490194 () (_ BitVec 64) #x0000000000000001)
(model-add temp2866_18 () (_ BitVec 64) #x0000000000000000)
(model-add temp2866_17 () (_ BitVec 64) #x0000000000000000)
(model-add temp2866_19 () (_ BitVec 64) #x0000000000000001)
(model-add var7474168 () (_ BitVec 64) #x0000000000000001)
(model-add temp2866_20 () (_ BitVec 64) #x0000000000000000)
(model-add var7474218 () (_ BitVec 64) #x0000000000000000)
(model-add temp2866_21 () (_ BitVec 64) #x0000000000000000)





